variable nvtEqSteps     equal   2500    # 5 ps
variable nptEqSteps     equal   2500    # 5 ps

variable temperatureT   equal    298    # K
variable pressureP      equal      1    # atm

# the standard TIP3P water model requires not only hydrogen bonds to be rigid,
# but also the HOH angle. Here we set the ID of this angle.
# Look it up within the data file.
variable angleIdWater   equal     11

# Intialization
units          real
# http://lammps.sandia.gov/doc/units.html
    #mass = grams/mole
    #distance = Angstroms
    #time = femtoseconds
    #energy = Kcal/mole
    #velocity = Angstroms/femtosecond
    #force = Kcal/mole-Angstrom, compared to gmx: kJ mol^-1 nm^-1,
        # conversion F_lmp = F_gmx * 0.1 [nm/Ang] / 4.184 [kJ/kcal] ~ gmx / 41.81
        # 1000 kJ / (mol*nm) ~ 25 kCal/(mol*Ang)
    #torque = Kcal/mole
    #temperature = Kelvin
    #pressure = atmospheres, 1 atm = 1013 hPa ~ 100 kPa
    #dynamic viscosity = Poise
    #charge = multiple of electron charge (1.0 is a proton)
    #dipole = charge*Angstroms
    #electric field = volts/Angstrom
    #density = gram/cm^dim

neigh_modify    delay 2 every 1
# This command sets parameters that affect the building and use of pairwise
# neighbor lists. Depending on what pair interactions and other commands
# are defined, a simulation may require one or more neighbor lists.

atom_style      full
bond_style      harmonic

angle_style     charmm
# Source: http://lammps.sandia.gov/doc/angle_charmm.html
# angle potential E = K * ( theta - theta_0)^2 + K_UB * ( r - r_UB )^2

dihedral_style  charmmfsw
# Source: http://lammps.sandia.gov/doc/dihedral_charmm.html
# dihedral potential E = K * [ 1 + cos( n*phi - d ) ]
#
# (MacKerell) MacKerell, Bashford, Bellott, Dunbrack, Evanseck, Field, Fischer,
#             Gao, Guo, Ha, et al, J Phys Chem B, 102, 3586 (1998).

improper_style  harmonic
pair_style      lj/charmmfsw/coul/long 8 12 12
# Quote from http://lammps.sandia.gov/doc/pair_charmm.html
# The newer styles with charmmfsw or charmmfsh in their name replace the
# energy switching with force switching (fsw) and force shifting (fsh)
# functions, for LJ and Coulombic interactions respectively. These follow the
# formulas and description given in (Steinbach) and (Brooks) to minimize these
# artifacts.
#
# (Steinbach) Steinbach, Brooks, J Comput Chem, 15, 667 (1994).
# (Brooks)    Brooks, et al, J Comput Chem, 30, 1545 (2009).

pair_modify     mix arithmetic
kspace_style    pppm 1e-6
# Quote from http://lammps.sandia.gov/doc/kspace_style.html:
# The pppm style invokes a particle-particle particle-mesh solver (Hockney)
# which maps atom charge to a 3d mesh, uses 3d FFTs to solve Poisson’s
# equation on the mesh, then interpolates electric fields on the mesh points
# back to the atoms. It is closely related to the particle-mesh Ewald
# technique (PME) (Darden) used in AMBER and CHARMM. The cost of traditional
# Ewald summation scales as N^(3/2) where N is the number of atoms in the
# system. The PPPM solver scales as Nlog(N) due to the FFTs, so it is almost
# always a faster choice (Pollock).
#
# (Hockney)   Hockney and Eastwood, Computer Simulation Using Particles,
#             Adam Hilger, NY (1989).
# (Darden)    Darden, York, Pedersen, J Chem Phys, 98, 10089 (1993).
# (Pollock)   Pollock and Glosli, Comp Phys Comm, 95, 93 (1996).

read_data       ${dataFile}

special_bonds   charmm
# http://lammps.sandia.gov/doc/special_bonds.html
# The charmm keyword sets the 3 coefficients to 0.0, 0.0, 0.0 for both LJ and
# Coulombic interactions, which is the default for a commonly used version of
# the CHARMM force field. Note that in pair styles lj/charmm/coul/charmm and
# lj/charmm/coul/long the 1-4 coefficients are defined explicitly, and these
# pairwise contributions are computed as part of the charmm dihedral style
# - see the pair_coeff and dihedral_style commands for more information.
# See (MacKerell) for a description of the CHARMM force field.

timestep       2.0 # 0.002 ps = 2 fs

group          water      type  9 10  #  9 - H, 10 - O
group          surface    type  8     #  8 - Au
group          ion        type 12     # 12 - Na+
group          surfactant subtract all water surface ion
group          nonwater   subtract all water


# fix thermoAveOut all ave/time 1 100 100 c_thermo_etotal c_thermo_ke c_thermo_pe &
#   c_thermo_temp c_thermo_press c_thermo_enthalpy c_thermo_ebond c_thermo_eangle &
#   c_thermo_edihed c_thermo_eimp c_thermo_epair c_thermo_evdwl c_thermo_ecoul  &
#   c_thermo_elong c_thermo_etail c_thermo_vol &
#   mode scalar file ${baseName}_thermo.out
thermo_style   custom step etotal ke pe temp press enthalpy ebond eangle &
  edihed eimp epair evdwl ecoul elong etail vol
thermo         100
thermo_modify  norm no
